# Random Circle Problem
param d := 0.05; 
param n := 10; 
param radius := 2.00; 
param v0 := 
1 4.99
2 4.99
3 5.37
4 5.84
5 5.82
6 5.45
7 5.66
8 5.94
9 5.07
10 5.21
;
param cap := 
1 3.60596
2 3.74982
3 4.14955
4 5.04426
5 5.19609
6 0.11457
7 0.90012
8 1.33023
9 2.34419
10 2.36732
;
param x0 := 
1 2.00
2 1.62
3 0.62
4 -0.62
5 -1.62
6 -2.00
7 -1.62
8 -0.62
9 0.62
10 1.62
;
param y0 := 
1 -0.00
2 1.18
3 1.90
4 1.90
5 1.18
6 0.00
7 -1.18
8 -1.90
9 -1.90
10 -1.18
;
